c t mc
c file mc2022_track1_036.cnf
p cnf 74 384
-18 33 48 -30 -2 0
-3 56 32 -59 -7 0
-73 52 -69 -3 56 0
59 7 -12 18 33 0
14 68 44 -41 31 0
8 17 -11 60 -16 0
-18 -33 48 -30 2 0
30 2 -22 15 -28 0
41 -31 -25 9 67 0
-46 24 -72 -53 61 0
-1 66 19 -8 -17 0
-9 67 43 -21 -54 0
3 -56 -32 59 -7 0
41 -31 -25 -9 -67 0
-35 55 13 1 66 0
21 -54 45 -70 -29 0
-70 -29 -71 50 39 0
-46 -24 72 53 -61 0
-58 6 10 36 23 0
36 23 27 -35 -55 0
70 29 -71 -50 -39 0
15 -28 37 40 5 0
-15 -28 37 -40 5 0
-58 6 -10 36 -23 0
-15 -28 37 40 -5 0
-26 -20 -64 4 34 0
53 -61 57 47 74 0
30 -2 22 -15 28 0
-70 29 -71 -50 39 0
26 20 -64 4 34 0
8 -17 -11 60 16 0
-4 34 -62 38 65 0
-14 -68 44 41 -31 0
18 -33 48 -30 -2 0
3 -56 32 59 7 0
-38 65 -63 73 -52 0
-41 31 -25 -9 -67 0
-73 -52 69 3 -56 0
14 -68 44 41 31 0
15 -28 -37 40 -5 0
-18 -33 -48 30 2 0
38 65 63 73 -52 0
1 66 19 -8 17 0
-9 -67 43 -21 54 0
-8 -17 -11 -60 16 0
-18 33 -48 -30 2 0
53 -61 -57 -47 74 0
-14 -68 44 -41 31 0
38 -65 -63 -73 52 0
-9 67 43 21 54 0
-9 -67 -43 -21 -54 0
35 -55 -13 -1 66 0
30 -2 -22 -15 -28 0
38 -65 63 -73 -52 0
4 -34 -62 -38 -65 0
3 -56 32 -59 -7 0
-47 74 42 -26 -20 0
-21 54 -45 -70 29 0
38 -65 -63 73 -52 0
-1 -66 -19 8 17 0
60 16 49 14 -68 0
53 61 -57 47 74 0
-46 -24 -72 -53 -61 0
-30 2 22 -15 28 0
60 16 -49 -14 -68 0
59 7 12 -18 33 0
-3 -56 -32 -59 -7 0
21 -54 45 70 29 0
-30 2 -22 15 28 0
-21 -54 45 70 -29 0
15 -28 37 -40 -5 0
21 -54 -45 70 -29 0
36 -23 -27 35 55 0
4 -34 62 -38 65 0
-60 16 49 14 68 0
-38 -65 63 73 -52 0
38 65 63 -73 52 0
-58 -6 10 36 -23 0
30 -2 22 15 -28 0
18 -33 -48 -30 2 0
70 -29 -71 50 -39 0
-59 -7 12 18 -33 0
14 -68 -44 41 -31 0
-60 16 -49 -14 68 0
58 -6 -10 -36 23 0
8 -17 11 60 -16 0
-15 28 37 40 5 0
-21 -54 -45 -70 -29 0
18 33 48 -30 2 0
18 33 -48 -30 -2 0
73 -52 69 -3 -56 0
9 67 43 21 -54 0
-35 55 -13 -1 66 0
-18 -33 -48 -30 -2 0
-36 23 27 35 -55 0
41 -31 25 -9 67 0
-14 68 44 41 31 0
-40 -5 51 -58 -6 0
-41 -31 25 9 67 0
9 67 43 -21 54 0
60 -16 -49 14 -68 0
41 31 -25 9 -67 0
47 -74 -42 26 -20 0
-15 -28 -37 -40 -5 0
70 29 -71 50 39 0
-40 5 51 -58 6 0
-59 7 -12 18 -33 0
47 74 42 -26 20 0
-8 -17 11 60 16 0
-26 -20 64 4 -34 0
-53 61 -57 -47 74 0
-14 -68 -44 41 31 0
15 28 37 40 -5 0
-36 23 -27 -35 -55 0
15 28 -37 40 5 0
-47 74 -42 -26 20 0
53 61 57 47 -74 0
35 55 -13 -1 -66 0
73 -52 69 3 56 0
40 -5 -51 58 6 0
-47 -74 42 -26 20 0
-36 -23 27 -35 -55 0
41 -31 25 9 -67 0
-40 -5 51 58 6 0
70 29 71 -50 39 0
-47 -74 -42 26 20 0
15 -28 -37 -40 5 0
-70 29 71 -50 -39 0
58 -6 10 -36 -23 0
58 6 -10 36 23 0
-35 -55 13 1 -66 0
-53 -61 -57 -47 -74 0
-47 -74 42 26 -20 0
58 6 10 -36 23 0
-60 -16 49 14 -68 0
36 -23 -27 -35 -55 0
40 5 -51 -58 6 0
70 29 71 50 -39 0
-35 -55 -13 -1 -66 0
58 -6 -10 36 -23 0
-4 34 -62 -38 -65 0
47 -74 -42 -26 20 0
-53 -61 57 -47 74 0
-21 -54 45 -70 29 0
36 -23 27 35 -55 0
36 -23 27 -35 55 0
-40 5 -51 -58 -6 0
-14 68 44 -41 -31 0
-4 -34 -62 38 -65 0
30 -2 -22 15 28 0
-21 54 -45 70 -29 0
-1 -66 19 8 -17 0
41 31 -25 -9 67 0
-73 52 -69 3 -56 0
-47 -74 -42 -26 -20 0
-47 74 42 26 20 0
-46 24 -72 53 -61 0
-59 -7 -12 -18 -33 0
58 -6 10 36 23 0
-14 68 -44 -41 31 0
-8 17 -11 -60 -16 0
9 -67 -43 21 -54 0
-41 -31 25 -9 -67 0
40 5 51 -58 -6 0
59 -7 -12 18 -33 0
3 -56 -32 -59 7 0
30 2 22 -15 -28 0
1 -66 19 8 17 0
3 56 -32 -59 -7 0
73 52 69 -3 56 0
-73 52 69 3 56 0
-30 -2 -22 15 -28 0
21 54 45 70 -29 0
70 -29 -71 -50 39 0
60 -16 49 14 68 0
59 -7 12 -18 -33 0
26 -20 64 4 34 0
-36 23 27 -35 55 0
14 -68 44 -41 -31 0
-58 -6 -10 -36 -23 0
4 34 62 -38 -65 0
59 7 -12 -18 -33 0
-70 29 71 50 39 0
4 -34 -62 38 65 0
46 -24 72 53 61 0
-40 5 51 58 -6 0
3 56 32 -59 7 0
46 24 72 53 -61 0
-26 -20 64 -4 34 0
-30 -2 22 -15 -28 0
-3 56 -32 -59 7 0
-35 55 13 -1 -66 0
-73 -52 -69 3 56 0
-1 -66 19 -8 17 0
-15 28 -37 40 -5 0
-73 -52 69 -3 56 0
15 28 37 -40 5 0
58 6 -10 -36 -23 0
46 24 -72 -53 -61 0
-60 -16 49 -14 68 0
35 -55 13 -1 -66 0
8 -17 -11 -60 -16 0
-70 -29 71 50 -39 0
70 -29 71 -50 -39 0
41 31 25 -9 -67 0
53 61 -57 -47 -74 0
-21 54 45 -70 -29 0
3 56 -32 59 7 0
-18 33 -48 30 -2 0
1 -66 -19 -8 17 0
73 52 69 3 -56 0
-26 20 64 -4 -34 0
-38 -65 -63 73 52 0
-38 -65 63 -73 52 0
73 52 -69 3 56 0
18 -33 -48 30 -2 0
30 2 22 15 28 0
-3 -56 -32 59 7 0
9 -67 43 21 54 0
-38 65 63 73 52 0
21 54 -45 70 29 0
36 23 -27 35 -55 0
-4 34 62 -38 65 0
3 56 32 59 -7 0
40 5 -51 58 -6 0
-59 -7 -12 18 33 0
1 66 -19 8 17 0
21 54 -45 -70 -29 0
-1 66 19 8 17 0
-46 -24 72 -53 61 0
-8 -17 -11 60 -16 0
1 -66 -19 8 -17 0
8 -17 11 -60 16 0
35 55 13 -1 66 0
-26 20 -64 -4 34 0
47 -74 42 26 20 0
26 20 64 -4 34 0
60 16 49 -14 68 0
-3 56 32 59 7 0
26 20 -64 -4 -34 0
-26 -20 -64 -4 -34 0
-30 -2 -22 -15 28 0
8 17 11 60 16 0
-60 -16 -49 14 68 0
-3 56 -32 59 -7 0
40 -5 51 -58 6 0
-40 5 -51 58 6 0
-36 -23 27 35 55 0
73 -52 -69 3 -56 0
46 -24 72 -53 -61 0
-46 24 72 -53 -61 0
-70 -29 -71 -50 -39 0
-3 -56 32 -59 7 0
47 74 -42 -26 -20 0
-38 65 63 -73 -52 0
18 -33 48 30 2 0
60 16 -49 14 68 0
59 -7 12 18 33 0
-59 -7 12 -18 33 0
73 -52 -69 -3 56 0
9 -67 43 -21 -54 0
-53 -61 57 47 -74 0
-70 29 -71 50 -39 0
41 31 25 9 67 0
-30 2 -22 -15 -28 0
-35 -55 13 -1 66 0
-21 54 45 70 29 0
-8 17 11 -60 16 0
-35 55 -13 1 -66 0
-18 -33 48 30 -2 0
-26 20 64 4 34 0
40 -5 -51 -58 -6 0
-40 -5 -51 58 -6 0
-15 28 37 -40 -5 0
-4 -34 62 38 65 0
15 28 -37 -40 -5 0
-36 23 -27 35 55 0
8 17 -11 -60 16 0
9 67 -43 21 54 0
-41 31 25 -9 67 0
-9 -67 -43 21 54 0
47 74 -42 26 20 0
38 65 -63 73 52 0
30 2 -22 -15 28 0
4 34 62 38 65 0
-9 67 -43 21 -54 0
36 23 27 35 55 0
-1 66 -19 -8 17 0
-41 31 -25 9 67 0
-38 65 -63 -73 52 0
9 67 -43 -21 -54 0
-53 61 57 -47 -74 0
1 66 19 8 -17 0
59 7 12 18 -33 0
-3 -56 32 59 -7 0
8 17 11 -60 -16 0
-8 17 11 60 -16 0
-9 -67 43 21 -54 0
-14 -68 -44 -41 -31 0
9 -67 -43 -21 54 0
47 -74 42 -26 -20 0
14 -68 -44 -41 31 0
40 -5 51 58 -6 0
35 -55 13 1 66 0
36 23 -27 -35 55 0
-58 -6 -10 36 23 0
-46 -24 -72 53 61 0
-41 -31 -25 -9 67 0
-60 16 49 -14 -68 0
38 65 -63 -73 -52 0
21 -54 -45 -70 29 0
4 34 -62 -38 65 0
46 24 -72 53 61 0
21 54 45 -70 29 0
-21 -54 -45 70 29 0
46 -24 -72 -53 61 0
35 55 13 1 -66 0
-53 61 -57 47 -74 0
46 24 72 -53 61 0
-58 -6 10 -36 23 0
38 -65 63 73 52 0
-73 52 69 -3 -56 0
-58 6 -10 -36 23 0
53 -61 57 -47 -74 0
-30 2 22 15 -28 0
47 74 42 26 -20 0
70 -29 71 50 39 0
35 55 -13 1 66 0
-41 -31 -25 9 -67 0
-60 16 -49 14 -68 0
-38 -65 -63 -73 -52 0
18 33 48 30 -2 0
-14 68 -44 41 -31 0
4 -34 62 38 -65 0
-59 7 12 18 33 0
-4 -34 62 -38 -65 0
1 66 -19 -8 -17 0
14 68 44 41 -31 0
-53 61 57 47 74 0
-59 7 12 -18 -33 0
-36 -23 -27 -35 55 0
58 6 10 36 -23 0
-70 -29 71 -50 39 0
-1 66 -19 8 -17 0
-73 -52 -69 -3 -56 0
26 -20 64 -4 -34 0
4 34 -62 38 -65 0
-58 6 10 -36 -23 0
18 33 -48 30 2 0
53 61 57 -47 74 0
35 -55 -13 1 -66 0
1 -66 19 -8 -17 0
26 -20 -64 -4 34 0
14 68 -44 -41 -31 0
59 -7 -12 -18 33 0
-46 24 72 53 61 0
-53 -61 -57 47 74 0
-40 -5 -51 -58 6 0
-9 67 -43 -21 54 0
-1 -66 -19 -8 -17 0
-4 -34 -62 -38 65 0
46 -24 -72 53 -61 0
-15 28 -37 -40 5 0
-36 -23 -27 35 -55 0
53 -61 -57 47 -74 0
26 20 64 4 -34 0
26 -20 -64 4 -34 0
-8 -17 11 -60 -16 0
-26 20 -64 4 -34 0
60 -16 49 -14 -68 0
-15 -28 -37 40 5 0
73 52 -69 -3 -56 0
-47 74 -42 26 -20 0
60 -16 -49 -14 68 0
14 68 -44 41 31 0
-35 -55 -13 1 66 0
-18 33 48 30 2 0
-59 7 -12 -18 33 0
-30 -2 22 15 28 0
-4 34 62 38 -65 0
40 5 51 58 6 0
-8 17 -11 60 16 0
-41 31 25 9 -67 0
-60 -16 -49 -14 -68 0
